; Formal verification proof - input completeness of test_netlist9x9.txt
(set-logic QF_BV)

; Inputs: x0, x1, x2, x3, x4, x5, x6, x7, x8, y0, y1, y2, y3, y4, y5, y6, y7, y8
(declare-fun x0 () (_ BitVec 1))
(declare-fun x1 () (_ BitVec 1))
(declare-fun x2 () (_ BitVec 1))
(declare-fun x3 () (_ BitVec 1))
(declare-fun x4 () (_ BitVec 1))
(declare-fun x5 () (_ BitVec 1))
(declare-fun x6 () (_ BitVec 1))
(declare-fun x7 () (_ BitVec 1))
(declare-fun x8 () (_ BitVec 1))
(declare-fun y0 () (_ BitVec 1))
(declare-fun y1 () (_ BitVec 1))
(declare-fun y2 () (_ BitVec 1))
(declare-fun y3 () (_ BitVec 1))
(declare-fun y4 () (_ BitVec 1))
(declare-fun y5 () (_ BitVec 1))
(declare-fun y6 () (_ BitVec 1))
(declare-fun y7 () (_ BitVec 1))
(declare-fun y8 () (_ BitVec 1))

; Outputs: p0, p1, p2, p3, p4, p5, p6, p7, p8, p9, p10, p11, p12, p13, p14, p15, p16, p17
(declare-fun p0 () (_ BitVec 1))
(declare-fun p1 () (_ BitVec 1))
(declare-fun p2 () (_ BitVec 1))
(declare-fun p3 () (_ BitVec 1))
(declare-fun p4 () (_ BitVec 1))
(declare-fun p5 () (_ BitVec 1))
(declare-fun p6 () (_ BitVec 1))
(declare-fun p7 () (_ BitVec 1))
(declare-fun p8 () (_ BitVec 1))
(declare-fun p9 () (_ BitVec 1))
(declare-fun p10 () (_ BitVec 1))
(declare-fun p11 () (_ BitVec 1))
(declare-fun p12 () (_ BitVec 1))
(declare-fun p13 () (_ BitVec 1))
(declare-fun p14 () (_ BitVec 1))
(declare-fun p15 () (_ BitVec 1))
(declare-fun p16 () (_ BitVec 1))
(declare-fun p17 () (_ BitVec 1))

; SAT/UNSAT assertion for test_netlist9x9.txt
(assert
	(not		
		(let
			(
				(p0 (bvand x0 y0))
				(t0 (bvand x1 y0))
				(t1 (bvand x0 y1))
				(t2 (bvand x2 y0))
				(t3 (bvand x1 y1))
				(t7 (bvand x3 y0))
				(t8 (bvand x2 y1))
				(t12 (bvand x4 y0))
				(t13 (bvand x3 y1))
				(t17 (bvand x5 y0))
				(t18 (bvand x4 y1))
				(t22 (bvand x6 y0))
				(t23 (bvand x5 y1))
				(t27 (bvand x7 y0))
				(t28 (bvand x6 y1))
				(t32 (bvand x8 y0))
				(t33 (bvand x7 y1))
				(t37 (bvand x8 y1))
				(t38 (bvand x0 y2))
				(t39 (bvand x1 y2))
				(t43 (bvand x2 y2))
				(t47 (bvand x3 y2))
				(t51 (bvand x4 y2))
				(t55 (bvand x5 y2))
				(t59 (bvand x6 y2))
				(t63 (bvand x7 y2))
				(t67 (bvand x8 y2))
				(t71 (bvand x0 y3))
				(t72 (bvand x1 y3))
				(t76 (bvand x2 y3))
				(t80 (bvand x3 y3))
				(t84 (bvand x4 y3))
				(t88 (bvand x5 y3))
				(t92 (bvand x6 y3))
				(t96 (bvand x7 y3))
				(t100 (bvand x8 y3))
				(t104 (bvand x0 y4))
				(t105 (bvand x1 y4))
				(t109 (bvand x2 y4))
				(t113 (bvand x3 y4))
				(t117 (bvand x4 y4))
				(t121 (bvand x5 y4))
				(t125 (bvand x6 y4))
				(t129 (bvand x7 y4))
				(t133 (bvand x8 y4))
				(t137 (bvand x0 y5))
				(t138 (bvand x1 y5))
				(t142 (bvand x2 y5))
				(t146 (bvand x3 y5))
				(t150 (bvand x4 y5))
				(t154 (bvand x5 y5))
				(t158 (bvand x6 y5))
				(t162 (bvand x7 y5))
				(t166 (bvand x8 y5))
				(t170 (bvand x0 y6))
				(t171 (bvand x1 y6))
				(t175 (bvand x2 y6))
				(t179 (bvand x3 y6))
				(t183 (bvand x4 y6))
				(t187 (bvand x5 y6))
				(t191 (bvand x6 y6))
				(t195 (bvand x7 y6))
				(t199 (bvand x8 y6))
				(t203 (bvand x0 y7))
				(t204 (bvand x1 y7))
				(t208 (bvand x2 y7))
				(t212 (bvand x3 y7))
				(t216 (bvand x4 y7))
				(t220 (bvand x5 y7))
				(t224 (bvand x6 y7))
				(t228 (bvand x7 y7))
				(t232 (bvand x8 y7))
				(t236 (bvand x0 y8))
				(t237 (bvand x1 y8))
				(t241 (bvand x2 y8))
				(t245 (bvand x3 y8))
				(t249 (bvand x4 y8))
				(t253 (bvand x5 y8))
				(t257 (bvand x6 y8))
				(t261 (bvand x7 y8))
				(t265 (bvand x8 y8))
			)		
		(let
			(
				(p1 (bvxor t0 t1))
				(c0 (bvand t0 t1))
				(t4 (bvxor t2 t3))
				(t6 (bvand t2 t3))
				(t9 (bvxor t7 t8))
				(t10 (bvand t7 t8))
				(t14 (bvxor t12 t13))
				(t15 (bvand t12 t13))
				(t19 (bvxor t17 t18))
				(t20 (bvand t17 t18))
				(t24 (bvxor t22 t23))
				(t25 (bvand t22 t23))
				(t29 (bvxor t27 t28))
				(t30 (bvand t27 t28))
				(t34 (bvxor t32 t33))
				(t35 (bvand t32 t33))
			)		
		(let
			(
				(s1 (bvxor c0 t4))
				(t5 (bvand c0 t4))
			)		
		(let
			(
				(c1 (bvor t6 t5))
				(p2 (bvxor s1 t38))
				(c9 (bvand s1 t38))
			)		
		(let
			(
				(s2 (bvxor c1 t9))
				(t11 (bvand c1 t9))
			)		
		(let
			(
				(c2 (bvor t10 t11))
				(t40 (bvxor s2 t39))
				(t41 (bvand s2 t39))
			)		
		(let
			(
				(s3 (bvxor c2 t14))
				(t16 (bvand c2 t14))
				(s9 (bvxor c9 t40))
				(t42 (bvand c9 t40))
			)		
		(let
			(
				(c3 (bvor t15 t16))
				(c10 (bvor t42 t41))
				(t44 (bvxor s3 t43))
				(t45 (bvand s3 t43))
				(p3 (bvxor s9 t71))
				(c18 (bvand s9 t71))
			)		
		(let
			(
				(s4 (bvxor c3 t19))
				(t21 (bvand c3 t19))
				(s10 (bvxor c10 t44))
				(t46 (bvand c10 t44))
			)		
		(let
			(
				(c4 (bvor t21 t20))
				(c11 (bvor t46 t45))
				(t48 (bvxor s4 t47))
				(t49 (bvand s4 t47))
				(t73 (bvxor s10 t72))
				(t74 (bvand s10 t72))
			)		
		(let
			(
				(s5 (bvxor c4 t24))
				(t26 (bvand c4 t24))
				(s11 (bvxor c11 t48))
				(t50 (bvand c11 t48))
				(s17 (bvxor c18 t73))
				(t75 (bvand c18 t73))
			)		
		(let
			(
				(c5 (bvor t25 t26))
				(c12 (bvor t50 t49))
				(t52 (bvxor s5 t51))
				(t53 (bvand s5 t51))
				(c19 (bvor t75 t74))
				(t77 (bvxor s11 t76))
				(t78 (bvand s11 t76))
				(p4 (bvxor s17 t104))
				(c27 (bvand s17 t104))
			)		
		(let
			(
				(s6 (bvxor c5 t29))
				(t31 (bvand c5 t29))
				(s12 (bvxor c12 t52))
				(t54 (bvand c12 t52))
				(s18 (bvxor c19 t77))
				(t79 (bvand c19 t77))
			)		
		(let
			(
				(c6 (bvor t30 t31))
				(c13 (bvor t54 t53))
				(t56 (bvxor s6 t55))
				(t57 (bvand s6 t55))
				(c20 (bvor t79 t78))
				(t81 (bvxor s12 t80))
				(t82 (bvand s12 t80))
				(t106 (bvxor s18 t105))
				(t107 (bvand s18 t105))
			)		
		(let
			(
				(s7 (bvxor c6 t34))
				(t36 (bvand c6 t34))
				(s13 (bvxor c13 t56))
				(t58 (bvand c13 t56))
				(s19 (bvxor c20 t81))
				(t83 (bvand c20 t81))
				(s25 (bvxor c27 t106))
				(t108 (bvand c27 t106))
			)		
		(let
			(
				(c7 (bvor t35 t36))
				(c14 (bvor t58 t57))
				(t60 (bvxor s7 t59))
				(t61 (bvand s7 t59))
				(c21 (bvor t83 t82))
				(t85 (bvxor s13 t84))
				(t86 (bvand s13 t84))
				(c28 (bvor t108 t107))
				(t110 (bvxor s19 t109))
				(t111 (bvand s19 t109))
				(p5 (bvxor s25 t137))
				(c36 (bvand s25 t137))
			)		
		(let
			(
				(s8 (bvxor c7 t37))
				(c8 (bvand c7 t37))
				(s14 (bvxor c14 t60))
				(t62 (bvand c14 t60))
				(s20 (bvxor c21 t85))
				(t87 (bvand c21 t85))
				(s26 (bvxor c28 t110))
				(t112 (bvand c28 t110))
			)		
		(let
			(
				(c15 (bvor t62 t61))
				(t64 (bvxor s8 t63))
				(t65 (bvand s8 t63))
				(t68 (bvxor c8 t67))
				(t69 (bvand c8 t67))
				(c22 (bvor t87 t86))
				(t89 (bvxor s14 t88))
				(t90 (bvand s14 t88))
				(c29 (bvor t112 t111))
				(t114 (bvxor s20 t113))
				(t115 (bvand s20 t113))
				(t139 (bvxor s26 t138))
				(t140 (bvand s26 t138))
			)		
		(let
			(
				(s15 (bvxor c15 t64))
				(t66 (bvand c15 t64))
				(s21 (bvxor c22 t89))
				(t91 (bvand c22 t89))
				(s27 (bvxor c29 t114))
				(t116 (bvand c29 t114))
				(s33 (bvxor c36 t139))
				(t141 (bvand c36 t139))
			)		
		(let
			(
				(c16 (bvor t66 t65))
				(c23 (bvor t91 t90))
				(t93 (bvxor s15 t92))
				(t94 (bvand s15 t92))
				(c30 (bvor t116 t115))
				(t118 (bvxor s21 t117))
				(t119 (bvand s21 t117))
				(c37 (bvor t141 t140))
				(t143 (bvxor s27 t142))
				(t144 (bvand s27 t142))
				(p6 (bvxor s33 t170))
				(c45 (bvand s33 t170))
			)		
		(let
			(
				(s16 (bvxor c16 t68))
				(t70 (bvand c16 t68))
				(s22 (bvxor c23 t93))
				(t95 (bvand c23 t93))
				(s28 (bvxor c30 t118))
				(t120 (bvand c30 t118))
				(s34 (bvxor c37 t143))
				(t145 (bvand c37 t143))
			)		
		(let
			(
				(c17 (bvor t70 t69))
				(c24 (bvor t95 t94))
				(t97 (bvxor s16 t96))
				(t98 (bvand s16 t96))
				(c31 (bvor t120 t119))
				(t122 (bvxor s22 t121))
				(t123 (bvand s22 t121))
				(c38 (bvor t145 t144))
				(t147 (bvxor s28 t146))
				(t148 (bvand s28 t146))
				(t172 (bvxor s34 t171))
				(t173 (bvand s34 t171))
			)		
		(let
			(
				(s23 (bvxor c24 t97))
				(t99 (bvand c24 t97))
				(t101 (bvxor c17 t100))
				(t102 (bvand c17 t100))
				(s29 (bvxor c31 t122))
				(t124 (bvand c31 t122))
				(s35 (bvxor c38 t147))
				(t149 (bvand c38 t147))
				(s41 (bvxor c45 t172))
				(t174 (bvand c45 t172))
			)		
		(let
			(
				(c25 (bvor t99 t98))
				(c32 (bvor t124 t123))
				(t126 (bvxor s23 t125))
				(t127 (bvand s23 t125))
				(c39 (bvor t149 t148))
				(t151 (bvxor s29 t150))
				(t152 (bvand s29 t150))
				(c46 (bvor t174 t173))
				(t176 (bvxor s35 t175))
				(t177 (bvand s35 t175))
				(p7 (bvxor s41 t203))
				(c54 (bvand s41 t203))
			)		
		(let
			(
				(s24 (bvxor c25 t101))
				(t103 (bvand c25 t101))
				(s30 (bvxor c32 t126))
				(t128 (bvand c32 t126))
				(s36 (bvxor c39 t151))
				(t153 (bvand c39 t151))
				(s42 (bvxor c46 t176))
				(t178 (bvand c46 t176))
			)		
		(let
			(
				(c26 (bvor t103 t102))
				(c33 (bvor t128 t127))
				(t130 (bvxor s24 t129))
				(t131 (bvand s24 t129))
				(c40 (bvor t153 t152))
				(t155 (bvxor s30 t154))
				(t156 (bvand s30 t154))
				(c47 (bvor t178 t177))
				(t180 (bvxor s36 t179))
				(t181 (bvand s36 t179))
				(t205 (bvxor s42 t204))
				(t206 (bvand s42 t204))
			)		
		(let
			(
				(s31 (bvxor c33 t130))
				(t132 (bvand c33 t130))
				(t134 (bvxor c26 t133))
				(t135 (bvand c26 t133))
				(s37 (bvxor c40 t155))
				(t157 (bvand c40 t155))
				(s43 (bvxor c47 t180))
				(t182 (bvand c47 t180))
				(s49 (bvxor c54 t205))
				(t207 (bvand c54 t205))
			)		
		(let
			(
				(c34 (bvor t132 t131))
				(c41 (bvor t157 t156))
				(t159 (bvxor s31 t158))
				(t160 (bvand s31 t158))
				(c48 (bvor t182 t181))
				(t184 (bvxor s37 t183))
				(t185 (bvand s37 t183))
				(c55 (bvor t207 t206))
				(t209 (bvxor s43 t208))
				(t210 (bvand s43 t208))
				(p8 (bvxor s49 t236))
				(c63 (bvand s49 t236))
			)		
		(let
			(
				(s32 (bvxor c34 t134))
				(t136 (bvand c34 t134))
				(s38 (bvxor c41 t159))
				(t161 (bvand c41 t159))
				(s44 (bvxor c48 t184))
				(t186 (bvand c48 t184))
				(s50 (bvxor c55 t209))
				(t211 (bvand c55 t209))
			)		
		(let
			(
				(c35 (bvor t136 t135))
				(c42 (bvor t161 t160))
				(t163 (bvxor s32 t162))
				(t164 (bvand s32 t162))
				(c49 (bvor t186 t185))
				(t188 (bvxor s38 t187))
				(t189 (bvand s38 t187))
				(c56 (bvor t211 t210))
				(t213 (bvxor s44 t212))
				(t214 (bvand s44 t212))
				(t238 (bvxor s50 t237))
				(t239 (bvand s50 t237))
			)		
		(let
			(
				(s39 (bvxor c42 t163))
				(t165 (bvand c42 t163))
				(t167 (bvxor c35 t166))
				(t168 (bvand c35 t166))
				(s45 (bvxor c49 t188))
				(t190 (bvand c49 t188))
				(s51 (bvxor c56 t213))
				(t215 (bvand c56 t213))
				(p9 (bvxor c63 t238))
				(t240 (bvand c63 t238))
			)		
		(let
			(
				(c43 (bvor t165 t164))
				(c50 (bvor t190 t189))
				(t192 (bvxor s39 t191))
				(t193 (bvand s39 t191))
				(c57 (bvor t215 t214))
				(t217 (bvxor s45 t216))
				(t218 (bvand s45 t216))
				(c64 (bvor t240 t239))
				(t242 (bvxor s51 t241))
				(t243 (bvand s51 t241))
			)		
		(let
			(
				(s40 (bvxor c43 t167))
				(t169 (bvand c43 t167))
				(s46 (bvxor c50 t192))
				(t194 (bvand c50 t192))
				(s52 (bvxor c57 t217))
				(t219 (bvand c57 t217))
				(p10 (bvxor c64 t242))
				(t244 (bvand c64 t242))
			)		
		(let
			(
				(c44 (bvor t169 t168))
				(c51 (bvor t194 t193))
				(t196 (bvxor s40 t195))
				(t197 (bvand s40 t195))
				(c58 (bvor t219 t218))
				(t221 (bvxor s46 t220))
				(t222 (bvand s46 t220))
				(c65 (bvor t244 t243))
				(t246 (bvxor s52 t245))
				(t247 (bvand s52 t245))
			)		
		(let
			(
				(s47 (bvxor c51 t196))
				(t198 (bvand c51 t196))
				(t200 (bvxor c44 t199))
				(t201 (bvand c44 t199))
				(s53 (bvxor c58 t221))
				(t223 (bvand c58 t221))
				(p11 (bvxor c65 t246))
				(t248 (bvand c65 t246))
			)		
		(let
			(
				(c52 (bvor t198 t197))
				(c59 (bvor t223 t222))
				(t225 (bvxor s47 t224))
				(t226 (bvand s47 t224))
				(c66 (bvor t248 t247))
				(t250 (bvxor s53 t249))
				(t251 (bvand s53 t249))
			)		
		(let
			(
				(s48 (bvxor c52 t200))
				(t202 (bvand c52 t200))
				(s54 (bvxor c59 t225))
				(t227 (bvand c59 t225))
				(p12 (bvxor c66 t250))
				(t252 (bvand c66 t250))
			)		
		(let
			(
				(c53 (bvor t202 t201))
				(c60 (bvor t227 t226))
				(t229 (bvxor s48 t228))
				(t230 (bvand s48 t228))
				(c67 (bvor t252 t251))
				(t254 (bvxor s54 t253))
				(t255 (bvand s54 t253))
			)		
		(let
			(
				(s55 (bvxor c60 t229))
				(t231 (bvand c60 t229))
				(t233 (bvxor c53 t232))
				(t234 (bvand c53 t232))
				(p13 (bvxor c67 t254))
				(t256 (bvand c67 t254))
			)		
		(let
			(
				(c61 (bvor t231 t230))
				(c68 (bvor t256 t255))
				(t258 (bvxor s55 t257))
				(t259 (bvand s55 t257))
			)		
		(let
			(
				(s56 (bvxor c61 t233))
				(t235 (bvand c61 t233))
				(p14 (bvxor c68 t258))
				(t260 (bvand c68 t258))
			)		
		(let
			(
				(c62 (bvor t235 t234))
				(c69 (bvor t260 t259))
				(t262 (bvxor s56 t261))
				(t263 (bvand s56 t261))
			)		
		(let
			(
				(p15 (bvxor c69 t262))
				(t264 (bvand c69 t262))
				(t266 (bvxor c62 t265))
				(t267 (bvand c62 t265))
			)		
		(let
			(
				(c70 (bvor t264 t263))
			)		
		(let
			(
				(p16 (bvxor c70 t266))
				(t268 (bvand c70 t266))
			)		
		(let
			(
				(p17 (bvor t268 t267))
			)
		(let
			(
				(x_t (concat (_ bv0 9) x8 x7 x6 x5 x4 x3 x2 x1 x0))
				(y_t (concat (_ bv0 9) y8 y7 y6 y5 y4 y3 y2 y1 y0))
			)
		(let 
			(
				(out_pchb (concat p17 p16 p15 p14 p13 p12 p11 p10 p9 p8 p7 p6 p5 p4 p3 p2 p1 p0))
				(out_sync (bvmul x_t y_t))
				
			)
			
		(= out_pchb out_sync))) )))))))))) )))))))))) )))))))))) )))))))))) ))))))
	)	
)
(check-sat)
(get-model)
